results_rootrelaxation/bin018_050_033.srr.sol
solution status: optimal solution found
objective value:                                    0
_var351_                            0.401616424704078 	(obj:0)
_var600_                            0.142328139644526 	(obj:0)
_var943_                            0.228776669221318 	(obj:0)
_var2150_                           0.184238371436755 	(obj:0)
_var2732_                           0.157173041758588 	(obj:0)
_var2733_                           0.165923074333929 	(obj:0)
_var2737_                           0.280550164323198 	(obj:0)
_var2748_                          0.0306990299862879 	(obj:0)
_var2749_                           0.350157527495321 	(obj:0)
_var2750_                           0.299762601685296 	(obj:0)
_var2755_                           0.110214098215783 	(obj:0)
_var2758_                          0.0721648305069556 	(obj:0)
_var2759_                           0.106834955663553 	(obj:0)
_var2761_                          0.0752406684879485 	(obj:0)
_var2763_                           0.133988758315815 	(obj:0)
_var2764_                           0.293884190142166 	(obj:0)
_var2768_                           0.351768997899887 	(obj:0)
_var2773_                           0.124858482731858 	(obj:0)
_var2774_                          0.0327306228892429 	(obj:0)
_var2775_                          0.0259778837910429 	(obj:0)
_var2776_                          0.0576563137968598 	(obj:0)
_var2777_                           0.108584222138428 	(obj:0)
_var2778_                            0.11254236653682 	(obj:0)
_var2779_                           0.147654706071924 	(obj:0)
_var2782_                          0.0692686054375861 	(obj:0)
_var2783_                          0.0925542519746636 	(obj:0)
_var2785_                          0.0330436297282414 	(obj:0)
_var2786_                           0.224096342133213 	(obj:0)
_var2788_                          0.0299665966506681 	(obj:0)
_var2789_                          0.0557260095559704 	(obj:0)
_var2791_                           0.474933210595768 	(obj:0)
_var2792_                            0.24888844054247 	(obj:0)
_var2793_                          0.0658530288897553 	(obj:0)
_var2794_                         0.00267241501825501 	(obj:0)
_var2795_                           0.103966749211716 	(obj:0)
_var2797_                          0.0148141918317391 	(obj:0)
_var2798_                           0.268326047419822 	(obj:0)
_var2806_                           0.301215486348584 	(obj:0)
_var2807_                           0.120734053750935 	(obj:0)
_var2809_                           0.100870088699366 	(obj:0)
_var2811_                           0.212943796080306 	(obj:0)
_var2814_                          0.0742231819071153 	(obj:0)
_var2817_                           0.188323908138761 	(obj:0)
_var2822_                           0.150058287186687 	(obj:0)
_var2824_                           0.113083556198954 	(obj:0)
_var2826_                          0.0996226562289992 	(obj:0)
_var2829_                          0.0458967887874553 	(obj:0)
_var2831_                           0.032234345211034 	(obj:0)
_var2832_                          0.0534305295275861 	(obj:0)
_var2834_                          0.0577233530030454 	(obj:0)
_var2835_                          0.0994142130398615 	(obj:0)
_var2836_                           0.113120506123366 	(obj:0)
_var2838_                           0.136485761378895 	(obj:0)
_var2839_                           0.069771089393807 	(obj:0)
_var2840_                           0.103369411677805 	(obj:0)
_var2841_                         0.00933412476674719 	(obj:0)
_var2842_                           0.246323887129595 	(obj:0)
_var2844_                          0.0224359953305956 	(obj:0)
_var2847_                           0.174655351458771 	(obj:0)
_var2848_                          0.0966078075393914 	(obj:0)
_var2849_                          0.0216349930458243 	(obj:0)
_var2850_                           0.308288868235526 	(obj:0)
_var2854_                           0.319993008968218 	(obj:0)
_var2855_                           0.169141385459714 	(obj:0)
_var2856_                          0.0515719465357525 	(obj:0)
_var2858_                            0.17167378974177 	(obj:0)
_var2860_                          0.0209051957101565 	(obj:0)
_var2862_                           0.139685945036403 	(obj:0)
_var2863_                           0.232681579155488 	(obj:0)
_var2864_                           0.264674901811232 	(obj:0)
_var2865_                          0.0763932660275712 	(obj:0)
_var2867_                          0.0888872872791694 	(obj:0)
_var2871_                           0.227149040482652 	(obj:0)
_var2872_                           0.288502752993934 	(obj:0)
_var2873_                           0.058161481019935 	(obj:0)
_var2875_                          0.0104583077026479 	(obj:0)
_var2876_                          0.0504489537723351 	(obj:0)
_var2877_                           0.168699530882728 	(obj:0)
_var2878_                           0.120468109886632 	(obj:0)
_var2880_                          0.0240904045331294 	(obj:0)
_var2882_                          0.0348474968762517 	(obj:0)
_var2883_                         0.00882094674560968 	(obj:0)
_var2885_                         0.00104450918751137 	(obj:0)
_var2886_                           0.234326889073453 	(obj:0)
_var2887_                           0.188834300406935 	(obj:0)
_var2889_                           0.212614502138792 	(obj:0)
_var2890_                          0.0959307904951582 	(obj:0)
_var2893_                          0.0087724313532416 	(obj:0)
_var2895_                          0.0701365901371889 	(obj:0)
_var2899_                           0.246484554401785 	(obj:0)
_var2902_                          0.0594075355376346 	(obj:0)
_var2907_                          0.0778842945631157 	(obj:0)
_var2908_                           0.161151774152786 	(obj:0)
_var2909_                          0.0282082045348686 	(obj:0)
_var2911_                           0.222944907040222 	(obj:0)
_var2912_                           0.150025199456769 	(obj:0)
_var2913_                            0.22067793458598 	(obj:0)
_var2914_                           0.236970310182088 	(obj:0)
_var2916_                           0.117255313397764 	(obj:0)
_var2917_                          0.0384369183852589 	(obj:0)
_var2921_                           0.209264079667344 	(obj:0)
_var2923_                           0.125009906676765 	(obj:0)
_var2924_                          0.0387847594836862 	(obj:0)
_var2925_                           0.147223774728819 	(obj:0)
_var2928_                          0.0164725300251616 	(obj:0)
_var2929_                          0.0603903551918844 	(obj:0)
_var2930_                           0.273969613949152 	(obj:0)
_var2931_                          0.0683352576274502 	(obj:0)
_var2933_                          0.0190664495488615 	(obj:0)
_var2934_                           0.092968467650712 	(obj:0)
_var2938_                          0.0173479211596325 	(obj:0)
_var2939_                           0.129579935405375 	(obj:0)
_var2941_                          0.0748837419786396 	(obj:0)
_var2942_                           0.062276084403396 	(obj:0)
_var2943_                           0.165047933626927 	(obj:0)
_var2944_                          0.0987203334503365 	(obj:0)
_var2945_                          0.0234539365728985 	(obj:0)
_var2946_                          0.0891092973913775 	(obj:0)
_var2948_                          0.0205988774579442 	(obj:0)
_var2952_                          0.0528700873231866 	(obj:0)
_var2953_                          0.0936158729044763 	(obj:0)
_var2954_                          0.0947545490587419 	(obj:0)
_var2956_                          0.0251798684172529 	(obj:0)
_var2957_                          0.0451128792220921 	(obj:0)
_var2960_                          0.0612473609052814 	(obj:0)
_var2963_                           0.114762014610862 	(obj:0)
_var2964_                          0.0414660731914769 	(obj:0)
_var2965_                          0.0233755061325467 	(obj:0)
_var2967_                          0.0429964416850159 	(obj:0)
_var2968_                           0.140279363823237 	(obj:0)
_var2971_                          0.0815300353821143 	(obj:0)
_var2975_                          0.0724368483693535 	(obj:0)
_var2976_                          0.0090845501493329 	(obj:0)
_var2977_                           0.148655839730768 	(obj:0)
_var2978_                          0.0698503237735231 	(obj:0)
_var2982_                           0.056301491887414 	(obj:0)
_var2984_                          0.0363415051078326 	(obj:0)
_var2985_                          0.0822185432597822 	(obj:0)
_var2986_                          0.0483696970341661 	(obj:0)
_var2988_                          0.0110647806101565 	(obj:0)
_var2989_                          0.0741399802534637 	(obj:0)
_var2990_                          0.0718359843242929 	(obj:0)
_var2991_                          0.0231328121298072 	(obj:0)
_var2993_                          0.0497388107675217 	(obj:0)
_var2994_                          0.0416457394611482 	(obj:0)
_var2995_                         0.00142431027873222 	(obj:0)
_var3001_                           0.074746688149813 	(obj:0)
_var3005_                          0.0132238568164473 	(obj:0)
_var3006_                          0.0124805847611306 	(obj:0)
_var3007_                         0.00216582026899644 	(obj:0)
_var3011_                         0.00505260684809683 	(obj:0)
_var3012_                           0.016795926757226 	(obj:0)
